100
32
4
5
11
17
4
9
10
28
2
1
13
1
11
6
2
10
18
1
1
1
3
2
22
2
2
1
1
20
1
1
3
8
2
1
1
17
3
1
1
17
2
1
3
1
2
2
18
25
3
1
2
1
1
1
1
2
4
2
20
2
2
1
6
4
17
2
1
1
1
19
7
1
3
3
1
1
1
1
2
1
2
1
4
2
19
2
4
1
2
1
4
19
2
2
3
1
1
1
1
1